data/ILP/exact/instance098.lp
Minimize
obj: 1y_1 + 6y_2 + 100000y_3 + 7y_4 + 1y_5 + 100000y_6 + 5y_7 + 6y_8 + 1y_9 + 100000y_10 + 100000y_11 + 1y_12 + 6y_13 + 1y_14 + 1y_15 + 100000y_16 + 7y_17 + 5y_18 + 100000y_19 + 7y_20 + 1y_21 + 6y_22 + 1y_23 + 6y_24 + 1y_25 + 5y_26 + 100000y_27 + 6y_28 + 1y_29 + 5y_30 + 100000y_31 + 6y_32 + 1y_33 + 1y_34 + 100000y_35 + 7y_36 + 1y_37 + 100000y_38 + 1y_39 + 7y_40 + 5y_41 + 6y_42 + 1y_43 + 5y_44 + 100000y_45 + 1y_46 + 100000y_47 + 5y_48 + 6y_49 + 1y_50 + 100000y_51 + 7y_52 + 5y_53 + 1y_54 + 6y_55 + 1y_56 + 100000y_57 + 1y_58 + 7y_59 + 1y_60 + 6y_61 + 100000y_62 + 5y_63 + 5y_64 + 1y_65 + 6y_66 + 100000y_67 + 1y_68 + 1y_69 + 7y_70 + 100000y_71 + 6y_72 + 7y_73 + 100000y_74 + 1y_75 + 5y_76 + 1y_77 + 6y_78 + 5y_79 + 1y_80 + 100000y_81 + 1y_82 + 5y_83 + 6y_84 + 100000y_85 + 5y_86 + 100000y_87 + 7y_88 + 1y_89 + 1y_90 + 100000y_91 + 7y_92 + 1y_93 + 1y_94 + 6y_95 + 1y_96 + 6y_97 + 5y_98 + 100000y_99 + 6y_100 + 5y_101 + 1y_102 + 100000y_103 + 6y_104 + 1y_105 + 100000y_106 + 1y_107 + 7y_108 + 7y_109 + 5y_110 + 1y_111 + 100000y_112 + 1y_113 + 100000y_114 + 1y_115 + 6y_116 + 5y_117 + 6y_118 + 5y_119 + 100000y_120 + 1y_121 + 1y_122 + 7y_123 + 100000y_124 + 1y_125 + 5y_126 + 7y_127 + 1y_128 + 100000y_129 + 6y_130 + 1y_131 + 100000y_132 + 1y_133 + 5y_134 + 6y_135 + 1y_136 + 5y_137 + 6y_138 + 100000y_139 + 1y_140 + 100000y_141 + 6y_142 + 1y_143 + 7y_144 + 7y_145 + 5y_146 + 1y_147 + 1y_148 + 100000y_149 + 100000y_150 + 5y_151 + 6y_152 + 1y_153 + 100000y_154 + 5y_155 + 1y_156 + 6y_157 + 1y_158 + 100000y_159 + 1y_160 + 7y_161 + 5y_162 + 6y_163 + 100000y_164 + 1y_165 + 7y_166 + 1y_167 + 6y_168 + 1y_169 + 100000y_170 + 5y_171 + 100000y_172 + 5y_173 + 6y_174 + 1y_175 + 100000y_176 + 6y_177 + 1y_178 + 1y_179 + 7y_180 + 1y_181 + 5y_182 + 1y_183 + 7y_184 + 100000y_185 + 6y_186 + 5y_187 + 100000y_188 + 1y_189 + 6y_190 + 1y_191 + 5y_192 + 100000y_193 + 1y_194 + 1y_195 + 5y_196 + 100000y_197 + 7y_198 + 100000y_199 + 6y_200 + 7y_201 + 1y_202 + 1y_203 + 5y_204 + 100000y_205 + 6y_206 + 1y_207 + 5y_208 + 100000y_209 + 6y_210 + 1y_211 + 7y_212 + 100000y_213 + 6y_214 + 1y_215 + 1y_216 + 5y_217 + 1y_218 + 100000y_219 + 7y_220 + 1y_221 + 1y_222 + 100000y_223 + 6y_224 + 5y_225 + 6y_226 + 100000y_227 + 1y_228 + 5y_229 + 100000y_230 + 5y_231 + 7y_232 + 100000y_233 + 6y_234 + 1y_235 + 1y_236 + 6y_237 + 1y_238 + 100000y_239 + 6y_240 + 1y_241 + 100000y_242 + 100000y_243 + 198y_244 + 1y_245 + 1y_246 + 5y_247 + 6y_248 + 6y_249 + 7y_250 + 1y_251 + 6y_252 + 1y_253 + 7y_254 + 6y_255 + 7y_256 + 1y_257 + 6y_258 + 1y_259 + 7y_260 + 5y_261 + 1y_262 + 6y_263 + 1y_264 + 7y_265 + 5y_266 + 1y_267 + 1y_268 + 7y_269 + 5y_270 + 7y_271 + 1y_272 + 5y_273 + 1y_274 + 5y_275 + 7y_276 + 198y_277 + 5y_278 + 6y_279 + 1y_280 + 1y_281 + 6y_282 + 1y_283 + 7y_284 + 7y_285 + 6y_286 + 1y_287 + 6y_288 + 1y_289 + 7y_290 + 7y_291 + 6y_292 + 1y_293 + 6y_294 + 1y_295 + 5y_296 + 1y_297 + 5y_298 + 7y_299 + 1y_300 + 5y_301 + 1y_302 + 7y_303 + 7y_304 + 1y_305 + 5y_306 + 5y_307 + 1y_308 + 7y_309 + 6y_310 + 1y_311 + 5y_312 + 1y_313 + 6y_314 + 1y_315 + 7y_316 + 6y_317 + 1y_318 + 7y_319 + 1y_320 + 6y_321 + 7y_322 + 1y_323 + 7y_324 + 6y_325 + 5y_326 + 6y_327 + 1y_328 + 1y_329 + 5y_330 + 1y_331 + 7y_332 + 5y_333 + 1y_334 + 7y_335 + 5y_336 + 7y_337 + 1y_338 + 1y_339 + 5y_340 + 7y_341 + 1y_342 + 1y_343 + 5y_344 + 6y_345 + 7y_346 + 6y_347 + 1y_348 + 6y_349 + 7y_350 + 1y_351 + 1y_352 + 7y_353 + 6y_354 + 6y_355 + 1y_356 + 7y_357 + 6y_358 + 1y_359 + 5y_360 + 1y_361 + 7y_362 + 1y_363 + 5y_364 + 7y_365 + 5y_366 + 1y_367 + 1y_368 + 5y_369 + 7y_370 + 7y_371 + 1y_372 + 5y_373 + 5y_374 + 1y_375 + 1y_376 + 6y_377 + 6y_378 + 1y_379 + 7y_380 + 6y_381 + 7y_382 + 1y_383 + 6y_384 + 1y_385 + 7y_386 + 1y_387 + 7y_388 + 6y_389 + 1y_390 + 6y_391 + 5y_392 + 1y_393 + 5y_394 + 7y_395 + 1y_396 + 7y_397 + 5y_398 + 1y_399 + 1y_400 + 7y_401 + 5y_402 + 5y_403 + 7y_404 + 1y_405 + 1y_406 + 6y_407 + 5y_408 + 1y_409 + 1y_410 + 6y_411 + 7y_412 + 7y_413 + 6y_414 + 1y_415 + 1y_416 + 6y_417 + 7y_418 + 7y_419 + 1y_420 + 6y_421 + 6y_422 + 1y_423 + 1y_424 + 5y_425 + 7y_426 + 1y_427 + 5y_428 + 1y_429 + 7y_430 + 5y_431 + 7y_432 + 1y_433 + 5y_434 + 7y_435 + 1y_436 + 5y_437 + 1y_438 + 1y_439 + 5y_440 + 6y_441 + 6y_442 + 7y_443 + 1y_444 + 6y_445 + 7y_446 + 1y_447 + 1y_448 + 6y_449 + 7y_450 + 6y_451 + 7y_452 + 1y_453 + 1y_454 + 1y_455 + 6y_456 + 5y_457 + 100000y_458 + 100000y_459 + 100000y_460 + 100000y_461 + 100000y_462 + 100000y_463 + 100000y_464 + 100000y_465 + 100000y_466 + 100000y_467 + 100000y_468 + 100000y_469 + 100000y_470 + 100000y_471 + 100000y_472 + 100000y_473 + 100000y_474 + 100000y_475 + 100000y_476 + 100000y_477 + 100000y_478 + 100000y_479 + 100000y_480 + 100000y_481 + 100000y_482 + 100000y_483 + 100000y_484 + 100000y_485 + 100000y_486 + 100000y_487 + 100000y_488 + 100000y_489 + 100000y_490 + 100000y_491 + 100000y_492 + 100000y_493 + 100000y_494 + 100000y_495 + 100000y_496 + 100000y_497 + 100000y_498 + 100000y_499 + 100000y_500 + 100000y_501 + 100000y_502 + 100000y_503 + 100000y_504 + 100000y_505 + 100000y_506 + 100000y_507 + 100000y_508 + 100000y_509 + 100000y_510 + 100000y_511 + 100000y_512 + 100000y_513 + 100000y_514
Subject To
x_515 = 14
x_516 = 1
x_517 = 1
x_518 = 1
x_519 = 1
x_520 = 1
x_521 = 1
x_522 = 1
x_523 = 1
x_524 = 1
x_525 = 1
x_526 = 1
x_527 = 1
x_528 = 1
x_529 = 1
x_1 - 15y_1 <= 0
x_2 - 15y_2 <= 0
x_3 - 15y_3 <= 0
x_4 - 15y_4 <= 0
x_5 - 15y_5 <= 0
x_6 - 15y_6 <= 0
x_7 - 15y_7 <= 0
x_8 - 15y_8 <= 0
x_9 - 15y_9 <= 0
x_10 - 15y_10 <= 0
x_11 - 15y_11 <= 0
x_12 - 15y_12 <= 0
x_13 - 15y_13 <= 0
x_14 - 15y_14 <= 0
x_15 - 15y_15 <= 0
x_16 - 15y_16 <= 0
x_17 - 15y_17 <= 0
x_18 - 15y_18 <= 0
x_19 - 15y_19 <= 0
x_20 - 15y_20 <= 0
x_21 - 15y_21 <= 0
x_22 - 15y_22 <= 0
x_23 - 15y_23 <= 0
x_24 - 15y_24 <= 0
x_25 - 15y_25 <= 0
x_26 - 15y_26 <= 0
x_27 - 15y_27 <= 0
x_28 - 15y_28 <= 0
x_29 - 15y_29 <= 0
x_30 - 15y_30 <= 0
x_31 - 15y_31 <= 0
x_32 - 15y_32 <= 0
x_33 - 15y_33 <= 0
x_34 - 15y_34 <= 0
x_35 - 15y_35 <= 0
x_36 - 15y_36 <= 0
x_37 - 15y_37 <= 0
x_38 - 15y_38 <= 0
x_39 - 15y_39 <= 0
x_40 - 15y_40 <= 0
x_41 - 15y_41 <= 0
x_42 - 15y_42 <= 0
x_43 - 15y_43 <= 0
x_44 - 15y_44 <= 0
x_45 - 15y_45 <= 0
x_46 - 15y_46 <= 0
x_47 - 15y_47 <= 0
x_48 - 15y_48 <= 0
x_49 - 15y_49 <= 0
x_50 - 15y_50 <= 0
x_51 - 15y_51 <= 0
x_52 - 15y_52 <= 0
x_53 - 15y_53 <= 0
x_54 - 15y_54 <= 0
x_55 - 15y_55 <= 0
x_56 - 15y_56 <= 0
x_57 - 15y_57 <= 0
x_58 - 15y_58 <= 0
x_59 - 15y_59 <= 0
x_60 - 15y_60 <= 0
x_61 - 15y_61 <= 0
x_62 - 15y_62 <= 0
x_63 - 15y_63 <= 0
x_64 - 15y_64 <= 0
x_65 - 15y_65 <= 0
x_66 - 15y_66 <= 0
x_67 - 15y_67 <= 0
x_68 - 15y_68 <= 0
x_69 - 15y_69 <= 0
x_70 - 15y_70 <= 0
x_71 - 15y_71 <= 0
x_72 - 15y_72 <= 0
x_73 - 15y_73 <= 0
x_74 - 15y_74 <= 0
x_75 - 15y_75 <= 0
x_76 - 15y_76 <= 0
x_77 - 15y_77 <= 0
x_78 - 15y_78 <= 0
x_79 - 15y_79 <= 0
x_80 - 15y_80 <= 0
x_81 - 15y_81 <= 0
x_82 - 15y_82 <= 0
x_83 - 15y_83 <= 0
x_84 - 15y_84 <= 0
x_85 - 15y_85 <= 0
x_86 - 15y_86 <= 0
x_87 - 15y_87 <= 0
x_88 - 15y_88 <= 0
x_89 - 15y_89 <= 0
x_90 - 15y_90 <= 0
x_91 - 15y_91 <= 0
x_92 - 15y_92 <= 0
x_93 - 15y_93 <= 0
x_94 - 15y_94 <= 0
x_95 - 15y_95 <= 0
x_96 - 15y_96 <= 0
x_97 - 15y_97 <= 0
x_98 - 15y_98 <= 0
x_99 - 15y_99 <= 0
x_100 - 15y_100 <= 0
x_101 - 15y_101 <= 0
x_102 - 15y_102 <= 0
x_103 - 15y_103 <= 0
x_104 - 15y_104 <= 0
x_105 - 15y_105 <= 0
x_106 - 15y_106 <= 0
x_107 - 15y_107 <= 0
x_108 - 15y_108 <= 0
x_109 - 15y_109 <= 0
x_110 - 15y_110 <= 0
x_111 - 15y_111 <= 0
x_112 - 15y_112 <= 0
x_113 - 15y_113 <= 0
x_114 - 15y_114 <= 0
x_115 - 15y_115 <= 0
x_116 - 15y_116 <= 0
x_117 - 15y_117 <= 0
x_118 - 15y_118 <= 0
x_119 - 15y_119 <= 0
x_120 - 15y_120 <= 0
x_121 - 15y_121 <= 0
x_122 - 15y_122 <= 0
x_123 - 15y_123 <= 0
x_124 - 15y_124 <= 0
x_125 - 15y_125 <= 0
x_126 - 15y_126 <= 0
x_127 - 15y_127 <= 0
x_128 - 15y_128 <= 0
x_129 - 15y_129 <= 0
x_130 - 15y_130 <= 0
x_131 - 15y_131 <= 0
x_132 - 15y_132 <= 0
x_133 - 15y_133 <= 0
x_134 - 15y_134 <= 0
x_135 - 15y_135 <= 0
x_136 - 15y_136 <= 0
x_137 - 15y_137 <= 0
x_138 - 15y_138 <= 0
x_139 - 15y_139 <= 0
x_140 - 15y_140 <= 0
x_141 - 15y_141 <= 0
x_142 - 15y_142 <= 0
x_143 - 15y_143 <= 0
x_144 - 15y_144 <= 0
x_145 - 15y_145 <= 0
x_146 - 15y_146 <= 0
x_147 - 15y_147 <= 0
x_148 - 15y_148 <= 0
x_149 - 15y_149 <= 0
x_150 - 15y_150 <= 0
x_151 - 15y_151 <= 0
x_152 - 15y_152 <= 0
x_153 - 15y_153 <= 0
x_154 - 15y_154 <= 0
x_155 - 15y_155 <= 0
x_156 - 15y_156 <= 0
x_157 - 15y_157 <= 0
x_158 - 15y_158 <= 0
x_159 - 15y_159 <= 0
x_160 - 15y_160 <= 0
x_161 - 15y_161 <= 0
x_162 - 15y_162 <= 0
x_163 - 15y_163 <= 0
x_164 - 15y_164 <= 0
x_165 - 15y_165 <= 0
x_166 - 15y_166 <= 0
x_167 - 15y_167 <= 0
x_168 - 15y_168 <= 0
x_169 - 15y_169 <= 0
x_170 - 15y_170 <= 0
x_171 - 15y_171 <= 0
x_172 - 15y_172 <= 0
x_173 - 15y_173 <= 0
x_174 - 15y_174 <= 0
x_175 - 15y_175 <= 0
x_176 - 15y_176 <= 0
x_177 - 15y_177 <= 0
x_178 - 15y_178 <= 0
x_179 - 15y_179 <= 0
x_180 - 15y_180 <= 0
x_181 - 15y_181 <= 0
x_182 - 15y_182 <= 0
x_183 - 15y_183 <= 0
x_184 - 15y_184 <= 0
x_185 - 15y_185 <= 0
x_186 - 15y_186 <= 0
x_187 - 15y_187 <= 0
x_188 - 15y_188 <= 0
x_189 - 15y_189 <= 0
x_190 - 15y_190 <= 0
x_191 - 15y_191 <= 0
x_192 - 15y_192 <= 0
x_193 - 15y_193 <= 0
x_194 - 15y_194 <= 0
x_195 - 15y_195 <= 0
x_196 - 15y_196 <= 0
x_197 - 15y_197 <= 0
x_198 - 15y_198 <= 0
x_199 - 15y_199 <= 0
x_200 - 15y_200 <= 0
x_201 - 15y_201 <= 0
x_202 - 15y_202 <= 0
x_203 - 15y_203 <= 0
x_204 - 15y_204 <= 0
x_205 - 15y_205 <= 0
x_206 - 15y_206 <= 0
x_207 - 15y_207 <= 0
x_208 - 15y_208 <= 0
x_209 - 15y_209 <= 0
x_210 - 15y_210 <= 0
x_211 - 15y_211 <= 0
x_212 - 15y_212 <= 0
x_213 - 15y_213 <= 0
x_214 - 15y_214 <= 0
x_215 - 15y_215 <= 0
x_216 - 15y_216 <= 0
x_217 - 15y_217 <= 0
x_218 - 15y_218 <= 0
x_219 - 15y_219 <= 0
x_220 - 15y_220 <= 0
x_221 - 15y_221 <= 0
x_222 - 15y_222 <= 0
x_223 - 15y_223 <= 0
x_224 - 15y_224 <= 0
x_225 - 15y_225 <= 0
x_226 - 15y_226 <= 0
x_227 - 15y_227 <= 0
x_228 - 15y_228 <= 0
x_229 - 15y_229 <= 0
x_230 - 15y_230 <= 0
x_231 - 15y_231 <= 0
x_232 - 15y_232 <= 0
x_233 - 15y_233 <= 0
x_234 - 15y_234 <= 0
x_235 - 15y_235 <= 0
x_236 - 15y_236 <= 0
x_237 - 15y_237 <= 0
x_238 - 15y_238 <= 0
x_239 - 15y_239 <= 0
x_240 - 15y_240 <= 0
x_241 - 15y_241 <= 0
x_242 - 15y_242 <= 0
x_243 - 15y_243 <= 0
x_244 - 15y_244 <= 0
x_245 - 15y_245 <= 0
x_246 - 15y_246 <= 0
x_247 - 15y_247 <= 0
x_248 - 15y_248 <= 0
x_249 - 15y_249 <= 0
x_250 - 15y_250 <= 0
x_251 - 15y_251 <= 0
x_252 - 15y_252 <= 0
x_253 - 15y_253 <= 0
x_254 - 15y_254 <= 0
x_255 - 15y_255 <= 0
x_256 - 15y_256 <= 0
x_257 - 15y_257 <= 0
x_258 - 15y_258 <= 0
x_259 - 15y_259 <= 0
x_260 - 15y_260 <= 0
x_261 - 15y_261 <= 0
x_262 - 15y_262 <= 0
x_263 - 15y_263 <= 0
x_264 - 15y_264 <= 0
x_265 - 15y_265 <= 0
x_266 - 15y_266 <= 0
x_267 - 15y_267 <= 0
x_268 - 15y_268 <= 0
x_269 - 15y_269 <= 0
x_270 - 15y_270 <= 0
x_271 - 15y_271 <= 0
x_272 - 15y_272 <= 0
x_273 - 15y_273 <= 0
x_274 - 15y_274 <= 0
x_275 - 15y_275 <= 0
x_276 - 15y_276 <= 0
x_277 - 15y_277 <= 0
x_278 - 15y_278 <= 0
x_279 - 15y_279 <= 0
x_280 - 15y_280 <= 0
x_281 - 15y_281 <= 0
x_282 - 15y_282 <= 0
x_283 - 15y_283 <= 0
x_284 - 15y_284 <= 0
x_285 - 15y_285 <= 0
x_286 - 15y_286 <= 0
x_287 - 15y_287 <= 0
x_288 - 15y_288 <= 0
x_289 - 15y_289 <= 0
x_290 - 15y_290 <= 0
x_291 - 15y_291 <= 0
x_292 - 15y_292 <= 0
x_293 - 15y_293 <= 0
x_294 - 15y_294 <= 0
x_295 - 15y_295 <= 0
x_296 - 15y_296 <= 0
x_297 - 15y_297 <= 0
x_298 - 15y_298 <= 0
x_299 - 15y_299 <= 0
x_300 - 15y_300 <= 0
x_301 - 15y_301 <= 0
x_302 - 15y_302 <= 0
x_303 - 15y_303 <= 0
x_304 - 15y_304 <= 0
x_305 - 15y_305 <= 0
x_306 - 15y_306 <= 0
x_307 - 15y_307 <= 0
x_308 - 15y_308 <= 0
x_309 - 15y_309 <= 0
x_310 - 15y_310 <= 0
x_311 - 15y_311 <= 0
x_312 - 15y_312 <= 0
x_313 - 15y_313 <= 0
x_314 - 15y_314 <= 0
x_315 - 15y_315 <= 0
x_316 - 15y_316 <= 0
x_317 - 15y_317 <= 0
x_318 - 15y_318 <= 0
x_319 - 15y_319 <= 0
x_320 - 15y_320 <= 0
x_321 - 15y_321 <= 0
x_322 - 15y_322 <= 0
x_323 - 15y_323 <= 0
x_324 - 15y_324 <= 0
x_325 - 15y_325 <= 0
x_326 - 15y_326 <= 0
x_327 - 15y_327 <= 0
x_328 - 15y_328 <= 0
x_329 - 15y_329 <= 0
x_330 - 15y_330 <= 0
x_331 - 15y_331 <= 0
x_332 - 15y_332 <= 0
x_333 - 15y_333 <= 0
x_334 - 15y_334 <= 0
x_335 - 15y_335 <= 0
x_336 - 15y_336 <= 0
x_337 - 15y_337 <= 0
x_338 - 15y_338 <= 0
x_339 - 15y_339 <= 0
x_340 - 15y_340 <= 0
x_341 - 15y_341 <= 0
x_342 - 15y_342 <= 0
x_343 - 15y_343 <= 0
x_344 - 15y_344 <= 0
x_345 - 15y_345 <= 0
x_346 - 15y_346 <= 0
x_347 - 15y_347 <= 0
x_348 - 15y_348 <= 0
x_349 - 15y_349 <= 0
x_350 - 15y_350 <= 0
x_351 - 15y_351 <= 0
x_352 - 15y_352 <= 0
x_353 - 15y_353 <= 0
x_354 - 15y_354 <= 0
x_355 - 15y_355 <= 0
x_356 - 15y_356 <= 0
x_357 - 15y_357 <= 0
x_358 - 15y_358 <= 0
x_359 - 15y_359 <= 0
x_360 - 15y_360 <= 0
x_361 - 15y_361 <= 0
x_362 - 15y_362 <= 0
x_363 - 15y_363 <= 0
x_364 - 15y_364 <= 0
x_365 - 15y_365 <= 0
x_366 - 15y_366 <= 0
x_367 - 15y_367 <= 0
x_368 - 15y_368 <= 0
x_369 - 15y_369 <= 0
x_370 - 15y_370 <= 0
x_371 - 15y_371 <= 0
x_372 - 15y_372 <= 0
x_373 - 15y_373 <= 0
x_374 - 15y_374 <= 0
x_375 - 15y_375 <= 0
x_376 - 15y_376 <= 0
x_377 - 15y_377 <= 0
x_378 - 15y_378 <= 0
x_379 - 15y_379 <= 0
x_380 - 15y_380 <= 0
x_381 - 15y_381 <= 0
x_382 - 15y_382 <= 0
x_383 - 15y_383 <= 0
x_384 - 15y_384 <= 0
x_385 - 15y_385 <= 0
x_386 - 15y_386 <= 0
x_387 - 15y_387 <= 0
x_388 - 15y_388 <= 0
x_389 - 15y_389 <= 0
x_390 - 15y_390 <= 0
x_391 - 15y_391 <= 0
x_392 - 15y_392 <= 0
x_393 - 15y_393 <= 0
x_394 - 15y_394 <= 0
x_395 - 15y_395 <= 0
x_396 - 15y_396 <= 0
x_397 - 15y_397 <= 0
x_398 - 15y_398 <= 0
x_399 - 15y_399 <= 0
x_400 - 15y_400 <= 0
x_401 - 15y_401 <= 0
x_402 - 15y_402 <= 0
x_403 - 15y_403 <= 0
x_404 - 15y_404 <= 0
x_405 - 15y_405 <= 0
x_406 - 15y_406 <= 0
x_407 - 15y_407 <= 0
x_408 - 15y_408 <= 0
x_409 - 15y_409 <= 0
x_410 - 15y_410 <= 0
x_411 - 15y_411 <= 0
x_412 - 15y_412 <= 0
x_413 - 15y_413 <= 0
x_414 - 15y_414 <= 0
x_415 - 15y_415 <= 0
x_416 - 15y_416 <= 0
x_417 - 15y_417 <= 0
x_418 - 15y_418 <= 0
x_419 - 15y_419 <= 0
x_420 - 15y_420 <= 0
x_421 - 15y_421 <= 0
x_422 - 15y_422 <= 0
x_423 - 15y_423 <= 0
x_424 - 15y_424 <= 0
x_425 - 15y_425 <= 0
x_426 - 15y_426 <= 0
x_427 - 15y_427 <= 0
x_428 - 15y_428 <= 0
x_429 - 15y_429 <= 0
x_430 - 15y_430 <= 0
x_431 - 15y_431 <= 0
x_432 - 15y_432 <= 0
x_433 - 15y_433 <= 0
x_434 - 15y_434 <= 0
x_435 - 15y_435 <= 0
x_436 - 15y_436 <= 0
x_437 - 15y_437 <= 0
x_438 - 15y_438 <= 0
x_439 - 15y_439 <= 0
x_440 - 15y_440 <= 0
x_441 - 15y_441 <= 0
x_442 - 15y_442 <= 0
x_443 - 15y_443 <= 0
x_444 - 15y_444 <= 0
x_445 - 15y_445 <= 0
x_446 - 15y_446 <= 0
x_447 - 15y_447 <= 0
x_448 - 15y_448 <= 0
x_449 - 15y_449 <= 0
x_450 - 15y_450 <= 0
x_451 - 15y_451 <= 0
x_452 - 15y_452 <= 0
x_453 - 15y_453 <= 0
x_454 - 15y_454 <= 0
x_455 - 15y_455 <= 0
x_456 - 15y_456 <= 0
x_457 - 15y_457 <= 0
x_458 - 15y_458 <= 0
x_459 - 15y_459 <= 0
x_460 - 15y_460 <= 0
x_461 - 15y_461 <= 0
x_462 - 15y_462 <= 0
x_463 - 15y_463 <= 0
x_464 - 15y_464 <= 0
x_465 - 15y_465 <= 0
x_466 - 15y_466 <= 0
x_467 - 15y_467 <= 0
x_468 - 15y_468 <= 0
x_469 - 15y_469 <= 0
x_470 - 15y_470 <= 0
x_471 - 15y_471 <= 0
x_472 - 15y_472 <= 0
x_473 - 15y_473 <= 0
x_474 - 15y_474 <= 0
x_475 - 15y_475 <= 0
x_476 - 15y_476 <= 0
x_477 - 15y_477 <= 0
x_478 - 15y_478 <= 0
x_479 - 15y_479 <= 0
x_480 - 15y_480 <= 0
x_481 - 15y_481 <= 0
x_482 - 15y_482 <= 0
x_483 - 15y_483 <= 0
x_484 - 15y_484 <= 0
x_485 - 15y_485 <= 0
x_486 - 15y_486 <= 0
x_487 - 15y_487 <= 0
x_488 - 15y_488 <= 0
x_489 - 15y_489 <= 0
x_490 - 15y_490 <= 0
x_491 - 15y_491 <= 0
x_492 - 15y_492 <= 0
x_493 - 15y_493 <= 0
x_494 - 15y_494 <= 0
x_495 - 15y_495 <= 0
x_496 - 15y_496 <= 0
x_497 - 15y_497 <= 0
x_498 - 15y_498 <= 0
x_499 - 15y_499 <= 0
x_500 - 15y_500 <= 0
x_501 - 15y_501 <= 0
x_502 - 15y_502 <= 0
x_503 - 15y_503 <= 0
x_504 - 15y_504 <= 0
x_505 - 15y_505 <= 0
x_506 - 15y_506 <= 0
x_507 - 15y_507 <= 0
x_508 - 15y_508 <= 0
x_509 - 15y_509 <= 0
x_510 - 15y_510 <= 0
x_511 - 15y_511 <= 0
x_512 - 15y_512 <= 0
x_513 - 15y_513 <= 0
x_514 - 15y_514 <= 0
x_3 - x_460 +  x_1 - x_448 +  x_4 - x_20 +  x_2 - x_456 +  x_5 - x_453 = 0
x_7 - x_457 +  x_6 - x_459 = 0
x_9 - x_454 +  x_10 - x_461 +  x_8 - x_449 = 0
x_11 - x_458 +  x_12 - x_455 +  x_13 - x_451 = 0
x_18 - x_440 +  x_14 - x_433 +  x_16 - x_463 +  x_15 - x_436 +  x_17 - x_40 = 0
x_23 - x_444 +  x_19 - x_462 +  x_20 - x_4 +  x_21 - x_447 +  x_22 - x_441 = 0
x_25 - x_438 +  x_26 - x_434 +  x_27 - x_464 +  x_24 - x_442 = 0
x_30 - x_437 +  x_31 - x_465 +  x_29 - x_439 +  x_28 - x_445 = 0
x_32 - x_422 +  x_35 - x_468 +  x_33 - x_416 +  x_34 - x_420 +  x_36 - x_59 = 0
x_38 - x_467 +  x_39 - x_427 +  x_37 - x_429 +  x_40 - x_17 +  x_41 - x_425 = 0
x_42 - x_417 +  x_45 - x_469 +  x_43 - x_424 +  x_44 - x_428 = 0
x_48 - x_431 +  x_46 - x_423 +  x_47 - x_466 +  x_49 - x_421 = 0
x_54 - x_405 +  x_52 - x_73 +  x_53 - x_408 +  x_50 - x_400 +  x_51 - x_470 = 0
x_59 - x_36 +  x_55 - x_407 +  x_57 - x_471 +  x_56 - x_410 +  x_58 - x_415 = 0
x_63 - x_402 +  x_60 - x_406 +  x_61 - x_411 +  x_62 - x_472 = 0
x_64 - x_403 +  x_66 - x_414 +  x_65 - x_409 +  x_67 - x_473 = 0
x_70 - x_92 +  x_72 - x_391 +  x_71 - x_474 +  x_69 - x_385 +  x_68 - x_387 = 0
x_73 - x_52 +  x_77 - x_399 +  x_76 - x_392 +  x_74 - x_475 +  x_75 - x_396 = 0
x_78 - x_384 +  x_81 - x_476 +  x_80 - x_393 +  x_79 - x_394 = 0
x_84 - x_389 +  x_82 - x_390 +  x_83 - x_398 +  x_85 - x_477 = 0
x_90 - x_372 +  x_88 - x_109 +  x_86 - x_374 +  x_87 - x_478 +  x_89 - x_368 = 0
x_92 - x_70 +  x_91 - x_479 +  x_94 - x_379 +  x_95 - x_377 +  x_93 - x_383 = 0
x_96 - x_375 +  x_97 - x_378 +  x_99 - x_480 +  x_98 - x_369 = 0
x_103 - x_481 +  x_100 - x_381 +  x_102 - x_376 +  x_101 - x_373 = 0
x_105 - x_352 +  x_108 - x_127 +  x_104 - x_358 +  x_106 - x_483 +  x_107 - x_356 = 0
x_111 - x_363 +  x_113 - x_367 +  x_112 - x_485 +  x_110 - x_360 +  x_109 - x_88 = 0
x_114 - x_482 +  x_116 - x_354 +  x_117 - x_364 +  x_115 - x_359 = 0
x_120 - x_484 +  x_118 - x_355 +  x_119 - x_366 +  x_121 - x_361 = 0
x_122 - x_339 +  x_126 - x_344 +  x_124 - x_487 +  x_125 - x_338 +  x_123 - x_145 = 0
x_127 - x_108 +  x_129 - x_489 +  x_130 - x_345 +  x_131 - x_351 +  x_128 - x_348 = 0
x_135 - x_347 +  x_134 - x_336 +  x_133 - x_343 +  x_132 - x_486 = 0
x_138 - x_349 +  x_136 - x_342 +  x_139 - x_488 +  x_137 - x_340 = 0
x_142 - x_327 +  x_144 - x_166 +  x_143 - x_320 +  x_140 - x_323 +  x_141 - x_491 = 0
x_147 - x_331 +  x_148 - x_334 +  x_145 - x_123 +  x_146 - x_326 +  x_149 - x_493 = 0
x_150 - x_490 +  x_152 - x_321 +  x_151 - x_330 +  x_153 - x_329 = 0
x_156 - x_328 +  x_154 - x_492 +  x_157 - x_325 +  x_155 - x_333 = 0
x_162 - x_312 +  x_160 - x_305 +  x_158 - x_308 +  x_159 - x_495 +  x_161 - x_184 = 0
x_167 - x_315 +  x_166 - x_144 +  x_164 - x_496 +  x_165 - x_318 +  x_163 - x_310 = 0
x_170 - x_497 +  x_171 - x_306 +  x_169 - x_311 +  x_168 - x_314 = 0
x_175 - x_313 +  x_172 - x_494 +  x_173 - x_307 +  x_174 - x_317 = 0
x_180 - x_201 +  x_176 - x_498 +  x_178 - x_289 +  x_179 - x_293 +  x_177 - x_294 = 0
x_185 - x_500 +  x_184 - x_161 +  x_182 - x_296 +  x_181 - x_300 +  x_183 - x_302 = 0
x_187 - x_298 +  x_186 - x_288 +  x_188 - x_499 +  x_189 - x_297 = 0
x_191 - x_295 +  x_190 - x_292 +  x_192 - x_301 +  x_193 - x_501 = 0
x_196 - x_278 +  x_198 - x_220 +  x_195 - x_274 +  x_194 - x_272 +  x_197 - x_504 = 0
x_199 - x_503 +  x_203 - x_287 +  x_200 - x_279 +  x_202 - x_283 +  x_201 - x_180 = 0
x_205 - x_505 +  x_206 - x_282 +  x_204 - x_273 +  x_207 - x_280 = 0
x_209 - x_502 +  x_210 - x_286 +  x_208 - x_275 +  x_211 - x_281 = 0
x_213 - x_506 +  x_214 - x_263 +  x_215 - x_259 +  x_216 - x_257 +  x_212 - x_232 = 0
x_221 - x_267 +  x_218 - x_268 +  x_217 - x_261 +  x_220 - x_198 +  x_219 - x_509 = 0
x_224 - x_255 +  x_222 - x_262 +  x_225 - x_266 +  x_223 - x_507 = 0
x_229 - x_270 +  x_227 - x_508 +  x_226 - x_258 +  x_228 - x_264 = 0
x_230 - x_511 +  x_231 - x_247 = 0
x_233 - x_510 +  x_232 - x_212 +  x_234 - x_248 +  x_236 - x_253 +  x_235 - x_251 = 0
x_238 - x_246 +  x_239 - x_513 +  x_237 - x_249 = 0
x_240 - x_252 +  x_241 - x_245 +  x_242 - x_512 = 0
x_244 - x_277 +  x_243 - x_514 = 0
x_245 - x_241 +  x_246 - x_238 +  x_248 - x_234 +  x_247 - x_231 = 0
x_249 - x_237 +  x_250 - x_256 +  x_251 - x_235 = 0
x_254 - x_260 +  x_253 - x_236 +  x_252 - x_240 = 0
x_257 - x_216 +  x_255 - x_224 +  x_256 - x_250 = 0
x_260 - x_254 +  x_259 - x_215 +  x_258 - x_226 = 0
x_261 - x_217 +  x_262 - x_222 +  x_264 - x_228 +  x_263 - x_214 = 0
x_266 - x_225 +  x_265 - x_271 +  x_267 - x_221 = 0
x_268 - x_218 +  x_270 - x_229 +  x_269 - x_276 = 0
x_272 - x_194 +  x_273 - x_204 +  x_271 - x_265 = 0
x_276 - x_269 +  x_274 - x_195 +  x_275 - x_208 +  x_277 - x_244 = 0
x_279 - x_200 +  x_280 - x_207 +  x_281 - x_211 +  x_278 - x_196 = 0
x_284 - x_290 +  x_282 - x_206 +  x_283 - x_202 = 0
x_285 - x_291 +  x_287 - x_203 +  x_286 - x_210 = 0
x_288 - x_186 +  x_290 - x_284 +  x_289 - x_178 = 0
x_292 - x_190 +  x_291 - x_285 +  x_293 - x_179 = 0
x_297 - x_189 +  x_294 - x_177 +  x_295 - x_191 +  x_296 - x_182 = 0
x_299 - x_304 +  x_298 - x_187 +  x_300 - x_181 = 0
x_301 - x_192 +  x_302 - x_183 +  x_303 - x_309 = 0
x_306 - x_171 +  x_304 - x_299 +  x_305 - x_160 = 0
x_308 - x_158 +  x_307 - x_173 +  x_309 - x_303 = 0
x_310 - x_163 +  x_313 - x_175 +  x_311 - x_169 +  x_312 - x_162 = 0
x_316 - x_322 +  x_314 - x_168 +  x_315 - x_167 = 0
x_318 - x_165 +  x_317 - x_174 +  x_319 - x_324 = 0
x_321 - x_152 +  x_320 - x_143 +  x_322 - x_316 = 0
x_323 - x_140 +  x_325 - x_157 +  x_324 - x_319 = 0
x_326 - x_146 +  x_328 - x_156 +  x_327 - x_142 +  x_329 - x_153 = 0
x_330 - x_151 +  x_331 - x_147 +  x_332 - x_337 = 0
x_334 - x_148 +  x_333 - x_155 +  x_335 - x_341 = 0
x_336 - x_134 +  x_338 - x_125 +  x_337 - x_332 = 0
x_340 - x_137 +  x_339 - x_122 +  x_341 - x_335 = 0
x_344 - x_126 +  x_345 - x_130 +  x_342 - x_136 +  x_343 - x_133 = 0
x_346 - x_353 +  x_348 - x_128 +  x_347 - x_135 = 0
x_351 - x_131 +  x_349 - x_138 +  x_350 - x_357 = 0
x_352 - x_105 +  x_354 - x_116 +  x_353 - x_346 = 0
x_356 - x_107 +  x_355 - x_118 +  x_357 - x_350 = 0
x_358 - x_104 +  x_359 - x_115 +  x_360 - x_110 +  x_361 - x_121 = 0
x_364 - x_117 +  x_362 - x_370 +  x_363 - x_111 = 0
x_366 - x_119 +  x_367 - x_113 +  x_365 - x_371 = 0
x_370 - x_362 +  x_368 - x_89 +  x_369 - x_98 = 0
x_372 - x_90 +  x_371 - x_365 +  x_373 - x_101 = 0
x_376 - x_102 +  x_375 - x_96 +  x_377 - x_95 +  x_374 - x_86 = 0
x_378 - x_97 +  x_380 - x_386 +  x_379 - x_94 = 0
x_382 - x_388 +  x_383 - x_93 +  x_381 - x_100 = 0
x_384 - x_78 +  x_386 - x_380 +  x_385 - x_69 = 0
x_388 - x_382 +  x_387 - x_68 +  x_389 - x_84 = 0
x_392 - x_76 +  x_390 - x_82 +  x_391 - x_72 +  x_393 - x_80 = 0
x_396 - x_75 +  x_395 - x_401 +  x_394 - x_79 = 0
x_399 - x_77 +  x_397 - x_404 +  x_398 - x_83 = 0
x_400 - x_50 +  x_402 - x_63 +  x_401 - x_395 = 0
x_404 - x_397 +  x_403 - x_64 +  x_405 - x_54 = 0
x_406 - x_60 +  x_407 - x_55 +  x_409 - x_65 +  x_408 - x_53 = 0
x_410 - x_56 +  x_411 - x_61 +  x_412 - x_418 = 0
x_415 - x_58 +  x_414 - x_66 +  x_413 - x_419 = 0
x_416 - x_33 +  x_417 - x_42 +  x_418 - x_412 = 0
x_420 - x_34 +  x_421 - x_49 +  x_419 - x_413 = 0
x_424 - x_43 +  x_425 - x_41 +  x_423 - x_46 +  x_422 - x_32 = 0
x_426 - x_432 +  x_428 - x_44 +  x_427 - x_39 = 0
x_431 - x_48 +  x_430 - x_435 +  x_429 - x_37 = 0
x_432 - x_426 +  x_433 - x_14 +  x_434 - x_26 = 0
x_435 - x_430 +  x_436 - x_15 +  x_437 - x_30 = 0
x_440 - x_18 +  x_441 - x_22 +  x_439 - x_29 +  x_438 - x_25 = 0
x_443 - x_450 +  x_442 - x_24 +  x_444 - x_23 = 0
x_447 - x_21 +  x_446 - x_452 +  x_445 - x_28 = 0
x_448 - x_1 +  x_450 - x_443 +  x_449 - x_8 = 0
x_452 - x_446 +  x_453 - x_5 +  x_451 - x_13 = 0
x_455 - x_12 +  x_454 - x_9 +  x_456 - x_2 +  x_457 - x_7 = 0
x_459 - x_6 +  x_461 - x_10 - x_526 +  x_458 - x_11 +  x_460 - x_3 = 0
-x_527 +  x_463 - x_16 +  x_462 - x_19 +  x_464 - x_27 +  x_465 - x_31 = 0
-x_528 +  x_468 - x_35 +  x_466 - x_47 +  x_467 - x_38 +  x_469 - x_45 = 0
x_472 - x_62 +  x_471 - x_57 +  x_473 - x_67 +  x_470 - x_51 - x_529 = 0
x_477 - x_85 +  x_476 - x_81 +  x_515 +  x_474 - x_71 +  x_475 - x_74 = 0
-x_516 +  x_478 - x_87 +  x_479 - x_91 +  x_480 - x_99 +  x_481 - x_103 = 0
-x_517 +  x_484 - x_120 +  x_482 - x_114 +  x_485 - x_112 +  x_483 - x_106 = 0
x_488 - x_139 +  x_487 - x_124 +  x_486 - x_132 +  x_489 - x_129 - x_518 = 0
x_491 - x_141 +  x_490 - x_150 +  x_493 - x_149 +  x_492 - x_154 - x_519 = 0
x_496 - x_164 - x_520 +  x_495 - x_159 +  x_497 - x_170 +  x_494 - x_172 = 0
-x_521 +  x_500 - x_185 +  x_501 - x_193 +  x_499 - x_188 +  x_498 - x_176 = 0
x_503 - x_199 +  x_504 - x_197 +  x_502 - x_209 - x_522 +  x_505 - x_205 = 0
x_506 - x_213 +  x_509 - x_219 +  x_507 - x_223 +  x_508 - x_227 - x_523 = 0
x_513 - x_239 +  x_511 - x_230 +  x_510 - x_233 +  x_512 - x_242 - x_524 = 0
x_514 - x_243 - x_525 = 0
Bounds
x_1 >= 0
x_2 >= 0
x_3 >= 0
x_4 >= 0
x_5 >= 0
x_6 >= 0
x_7 >= 0
x_8 >= 0
x_9 >= 0
x_10 >= 0
x_11 >= 0
x_12 >= 0
x_13 >= 0
x_14 >= 0
x_15 >= 0
x_16 >= 0
x_17 >= 0
x_18 >= 0
x_19 >= 0
x_20 >= 0
x_21 >= 0
x_22 >= 0
x_23 >= 0
x_24 >= 0
x_25 >= 0
x_26 >= 0
x_27 >= 0
x_28 >= 0
x_29 >= 0
x_30 >= 0
x_31 >= 0
x_32 >= 0
x_33 >= 0
x_34 >= 0
x_35 >= 0
x_36 >= 0
x_37 >= 0
x_38 >= 0
x_39 >= 0
x_40 >= 0
x_41 >= 0
x_42 >= 0
x_43 >= 0
x_44 >= 0
x_45 >= 0
x_46 >= 0
x_47 >= 0
x_48 >= 0
x_49 >= 0
x_50 >= 0
x_51 >= 0
x_52 >= 0
x_53 >= 0
x_54 >= 0
x_55 >= 0
x_56 >= 0
x_57 >= 0
x_58 >= 0
x_59 >= 0
x_60 >= 0
x_61 >= 0
x_62 >= 0
x_63 >= 0
x_64 >= 0
x_65 >= 0
x_66 >= 0
x_67 >= 0
x_68 >= 0
x_69 >= 0
x_70 >= 0
x_71 >= 0
x_72 >= 0
x_73 >= 0
x_74 >= 0
x_75 >= 0
x_76 >= 0
x_77 >= 0
x_78 >= 0
x_79 >= 0
x_80 >= 0
x_81 >= 0
x_82 >= 0
x_83 >= 0
x_84 >= 0
x_85 >= 0
x_86 >= 0
x_87 >= 0
x_88 >= 0
x_89 >= 0
x_90 >= 0
x_91 >= 0
x_92 >= 0
x_93 >= 0
x_94 >= 0
x_95 >= 0
x_96 >= 0
x_97 >= 0
x_98 >= 0
x_99 >= 0
x_100 >= 0
x_101 >= 0
x_102 >= 0
x_103 >= 0
x_104 >= 0
x_105 >= 0
x_106 >= 0
x_107 >= 0
x_108 >= 0
x_109 >= 0
x_110 >= 0
x_111 >= 0
x_112 >= 0
x_113 >= 0
x_114 >= 0
x_115 >= 0
x_116 >= 0
x_117 >= 0
x_118 >= 0
x_119 >= 0
x_120 >= 0
x_121 >= 0
x_122 >= 0
x_123 >= 0
x_124 >= 0
x_125 >= 0
x_126 >= 0
x_127 >= 0
x_128 >= 0
x_129 >= 0
x_130 >= 0
x_131 >= 0
x_132 >= 0
x_133 >= 0
x_134 >= 0
x_135 >= 0
x_136 >= 0
x_137 >= 0
x_138 >= 0
x_139 >= 0
x_140 >= 0
x_141 >= 0
x_142 >= 0
x_143 >= 0
x_144 >= 0
x_145 >= 0
x_146 >= 0
x_147 >= 0
x_148 >= 0
x_149 >= 0
x_150 >= 0
x_151 >= 0
x_152 >= 0
x_153 >= 0
x_154 >= 0
x_155 >= 0
x_156 >= 0
x_157 >= 0
x_158 >= 0
x_159 >= 0
x_160 >= 0
x_161 >= 0
x_162 >= 0
x_163 >= 0
x_164 >= 0
x_165 >= 0
x_166 >= 0
x_167 >= 0
x_168 >= 0
x_169 >= 0
x_170 >= 0
x_171 >= 0
x_172 >= 0
x_173 >= 0
x_174 >= 0
x_175 >= 0
x_176 >= 0
x_177 >= 0
x_178 >= 0
x_179 >= 0
x_180 >= 0
x_181 >= 0
x_182 >= 0
x_183 >= 0
x_184 >= 0
x_185 >= 0
x_186 >= 0
x_187 >= 0
x_188 >= 0
x_189 >= 0
x_190 >= 0
x_191 >= 0
x_192 >= 0
x_193 >= 0
x_194 >= 0
x_195 >= 0
x_196 >= 0
x_197 >= 0
x_198 >= 0
x_199 >= 0
x_200 >= 0
x_201 >= 0
x_202 >= 0
x_203 >= 0
x_204 >= 0
x_205 >= 0
x_206 >= 0
x_207 >= 0
x_208 >= 0
x_209 >= 0
x_210 >= 0
x_211 >= 0
x_212 >= 0
x_213 >= 0
x_214 >= 0
x_215 >= 0
x_216 >= 0
x_217 >= 0
x_218 >= 0
x_219 >= 0
x_220 >= 0
x_221 >= 0
x_222 >= 0
x_223 >= 0
x_224 >= 0
x_225 >= 0
x_226 >= 0
x_227 >= 0
x_228 >= 0
x_229 >= 0
x_230 >= 0
x_231 >= 0
x_232 >= 0
x_233 >= 0
x_234 >= 0
x_235 >= 0
x_236 >= 0
x_237 >= 0
x_238 >= 0
x_239 >= 0
x_240 >= 0
x_241 >= 0
x_242 >= 0
x_243 >= 0
x_244 >= 0
x_245 >= 0
x_246 >= 0
x_247 >= 0
x_248 >= 0
x_249 >= 0
x_250 >= 0
x_251 >= 0
x_252 >= 0
x_253 >= 0
x_254 >= 0
x_255 >= 0
x_256 >= 0
x_257 >= 0
x_258 >= 0
x_259 >= 0
x_260 >= 0
x_261 >= 0
x_262 >= 0
x_263 >= 0
x_264 >= 0
x_265 >= 0
x_266 >= 0
x_267 >= 0
x_268 >= 0
x_269 >= 0
x_270 >= 0
x_271 >= 0
x_272 >= 0
x_273 >= 0
x_274 >= 0
x_275 >= 0
x_276 >= 0
x_277 >= 0
x_278 >= 0
x_279 >= 0
x_280 >= 0
x_281 >= 0
x_282 >= 0
x_283 >= 0
x_284 >= 0
x_285 >= 0
x_286 >= 0
x_287 >= 0
x_288 >= 0
x_289 >= 0
x_290 >= 0
x_291 >= 0
x_292 >= 0
x_293 >= 0
x_294 >= 0
x_295 >= 0
x_296 >= 0
x_297 >= 0
x_298 >= 0
x_299 >= 0
x_300 >= 0
x_301 >= 0
x_302 >= 0
x_303 >= 0
x_304 >= 0
x_305 >= 0
x_306 >= 0
x_307 >= 0
x_308 >= 0
x_309 >= 0
x_310 >= 0
x_311 >= 0
x_312 >= 0
x_313 >= 0
x_314 >= 0
x_315 >= 0
x_316 >= 0
x_317 >= 0
x_318 >= 0
x_319 >= 0
x_320 >= 0
x_321 >= 0
x_322 >= 0
x_323 >= 0
x_324 >= 0
x_325 >= 0
x_326 >= 0
x_327 >= 0
x_328 >= 0
x_329 >= 0
x_330 >= 0
x_331 >= 0
x_332 >= 0
x_333 >= 0
x_334 >= 0
x_335 >= 0
x_336 >= 0
x_337 >= 0
x_338 >= 0
x_339 >= 0
x_340 >= 0
x_341 >= 0
x_342 >= 0
x_343 >= 0
x_344 >= 0
x_345 >= 0
x_346 >= 0
x_347 >= 0
x_348 >= 0
x_349 >= 0
x_350 >= 0
x_351 >= 0
x_352 >= 0
x_353 >= 0
x_354 >= 0
x_355 >= 0
x_356 >= 0
x_357 >= 0
x_358 >= 0
x_359 >= 0
x_360 >= 0
x_361 >= 0
x_362 >= 0
x_363 >= 0
x_364 >= 0
x_365 >= 0
x_366 >= 0
x_367 >= 0
x_368 >= 0
x_369 >= 0
x_370 >= 0
x_371 >= 0
x_372 >= 0
x_373 >= 0
x_374 >= 0
x_375 >= 0
x_376 >= 0
x_377 >= 0
x_378 >= 0
x_379 >= 0
x_380 >= 0
x_381 >= 0
x_382 >= 0
x_383 >= 0
x_384 >= 0
x_385 >= 0
x_386 >= 0
x_387 >= 0
x_388 >= 0
x_389 >= 0
x_390 >= 0
x_391 >= 0
x_392 >= 0
x_393 >= 0
x_394 >= 0
x_395 >= 0
x_396 >= 0
x_397 >= 0
x_398 >= 0
x_399 >= 0
x_400 >= 0
x_401 >= 0
x_402 >= 0
x_403 >= 0
x_404 >= 0
x_405 >= 0
x_406 >= 0
x_407 >= 0
x_408 >= 0
x_409 >= 0
x_410 >= 0
x_411 >= 0
x_412 >= 0
x_413 >= 0
x_414 >= 0
x_415 >= 0
x_416 >= 0
x_417 >= 0
x_418 >= 0
x_419 >= 0
x_420 >= 0
x_421 >= 0
x_422 >= 0
x_423 >= 0
x_424 >= 0
x_425 >= 0
x_426 >= 0
x_427 >= 0
x_428 >= 0
x_429 >= 0
x_430 >= 0
x_431 >= 0
x_432 >= 0
x_433 >= 0
x_434 >= 0
x_435 >= 0
x_436 >= 0
x_437 >= 0
x_438 >= 0
x_439 >= 0
x_440 >= 0
x_441 >= 0
x_442 >= 0
x_443 >= 0
x_444 >= 0
x_445 >= 0
x_446 >= 0
x_447 >= 0
x_448 >= 0
x_449 >= 0
x_450 >= 0
x_451 >= 0
x_452 >= 0
x_453 >= 0
x_454 >= 0
x_455 >= 0
x_456 >= 0
x_457 >= 0
x_458 >= 0
x_459 >= 0
x_460 >= 0
x_461 >= 0
x_462 >= 0
x_463 >= 0
x_464 >= 0
x_465 >= 0
x_466 >= 0
x_467 >= 0
x_468 >= 0
x_469 >= 0
x_470 >= 0
x_471 >= 0
x_472 >= 0
x_473 >= 0
x_474 >= 0
x_475 >= 0
x_476 >= 0
x_477 >= 0
x_478 >= 0
x_479 >= 0
x_480 >= 0
x_481 >= 0
x_482 >= 0
x_483 >= 0
x_484 >= 0
x_485 >= 0
x_486 >= 0
x_487 >= 0
x_488 >= 0
x_489 >= 0
x_490 >= 0
x_491 >= 0
x_492 >= 0
x_493 >= 0
x_494 >= 0
x_495 >= 0
x_496 >= 0
x_497 >= 0
x_498 >= 0
x_499 >= 0
x_500 >= 0
x_501 >= 0
x_502 >= 0
x_503 >= 0
x_504 >= 0
x_505 >= 0
x_506 >= 0
x_507 >= 0
x_508 >= 0
x_509 >= 0
x_510 >= 0
x_511 >= 0
x_512 >= 0
x_513 >= 0
x_514 >= 0
x_515 >= 0
x_516 >= 0
x_517 >= 0
x_518 >= 0
x_519 >= 0
x_520 >= 0
x_521 >= 0
x_522 >= 0
x_523 >= 0
x_524 >= 0
x_525 >= 0
x_526 >= 0
x_527 >= 0
x_528 >= 0
x_529 >= 0
General
Binaries
y_1
y_2
y_3
y_4
y_5
y_6
y_7
y_8
y_9
y_10
y_11
y_12
y_13
y_14
y_15
y_16
y_17
y_18
y_19
y_20
y_21
y_22
y_23
y_24
y_25
y_26
y_27
y_28
y_29
y_30
y_31
y_32
y_33
y_34
y_35
y_36
y_37
y_38
y_39
y_40
y_41
y_42
y_43
y_44
y_45
y_46
y_47
y_48
y_49
y_50
y_51
y_52
y_53
y_54
y_55
y_56
y_57
y_58
y_59
y_60
y_61
y_62
y_63
y_64
y_65
y_66
y_67
y_68
y_69
y_70
y_71
y_72
y_73
y_74
y_75
y_76
y_77
y_78
y_79
y_80
y_81
y_82
y_83
y_84
y_85
y_86
y_87
y_88
y_89
y_90
y_91
y_92
y_93
y_94
y_95
y_96
y_97
y_98
y_99
y_100
y_101
y_102
y_103
y_104
y_105
y_106
y_107
y_108
y_109
y_110
y_111
y_112
y_113
y_114
y_115
y_116
y_117
y_118
y_119
y_120
y_121
y_122
y_123
y_124
y_125
y_126
y_127
y_128
y_129
y_130
y_131
y_132
y_133
y_134
y_135
y_136
y_137
y_138
y_139
y_140
y_141
y_142
y_143
y_144
y_145
y_146
y_147
y_148
y_149
y_150
y_151
y_152
y_153
y_154
y_155
y_156
y_157
y_158
y_159
y_160
y_161
y_162
y_163
y_164
y_165
y_166
y_167
y_168
y_169
y_170
y_171
y_172
y_173
y_174
y_175
y_176
y_177
y_178
y_179
y_180
y_181
y_182
y_183
y_184
y_185
y_186
y_187
y_188
y_189
y_190
y_191
y_192
y_193
y_194
y_195
y_196
y_197
y_198
y_199
y_200
y_201
y_202
y_203
y_204
y_205
y_206
y_207
y_208
y_209
y_210
y_211
y_212
y_213
y_214
y_215
y_216
y_217
y_218
y_219
y_220
y_221
y_222
y_223
y_224
y_225
y_226
y_227
y_228
y_229
y_230
y_231
y_232
y_233
y_234
y_235
y_236
y_237
y_238
y_239
y_240
y_241
y_242
y_243
y_244
y_245
y_246
y_247
y_248
y_249
y_250
y_251
y_252
y_253
y_254
y_255
y_256
y_257
y_258
y_259
y_260
y_261
y_262
y_263
y_264
y_265
y_266
y_267
y_268
y_269
y_270
y_271
y_272
y_273
y_274
y_275
y_276
y_277
y_278
y_279
y_280
y_281
y_282
y_283
y_284
y_285
y_286
y_287
y_288
y_289
y_290
y_291
y_292
y_293
y_294
y_295
y_296
y_297
y_298
y_299
y_300
y_301
y_302
y_303
y_304
y_305
y_306
y_307
y_308
y_309
y_310
y_311
y_312
y_313
y_314
y_315
y_316
y_317
y_318
y_319
y_320
y_321
y_322
y_323
y_324
y_325
y_326
y_327
y_328
y_329
y_330
y_331
y_332
y_333
y_334
y_335
y_336
y_337
y_338
y_339
y_340
y_341
y_342
y_343
y_344
y_345
y_346
y_347
y_348
y_349
y_350
y_351
y_352
y_353
y_354
y_355
y_356
y_357
y_358
y_359
y_360
y_361
y_362
y_363
y_364
y_365
y_366
y_367
y_368
y_369
y_370
y_371
y_372
y_373
y_374
y_375
y_376
y_377
y_378
y_379
y_380
y_381
y_382
y_383
y_384
y_385
y_386
y_387
y_388
y_389
y_390
y_391
y_392
y_393
y_394
y_395
y_396
y_397
y_398
y_399
y_400
y_401
y_402
y_403
y_404
y_405
y_406
y_407
y_408
y_409
y_410
y_411
y_412
y_413
y_414
y_415
y_416
y_417
y_418
y_419
y_420
y_421
y_422
y_423
y_424
y_425
y_426
y_427
y_428
y_429
y_430
y_431
y_432
y_433
y_434
y_435
y_436
y_437
y_438
y_439
y_440
y_441
y_442
y_443
y_444
y_445
y_446
y_447
y_448
y_449
y_450
y_451
y_452
y_453
y_454
y_455
y_456
y_457
y_458
y_459
y_460
y_461
y_462
y_463
y_464
y_465
y_466
y_467
y_468
y_469
y_470
y_471
y_472
y_473
y_474
y_475
y_476
y_477
y_478
y_479
y_480
y_481
y_482
y_483
y_484
y_485
y_486
y_487
y_488
y_489
y_490
y_491
y_492
y_493
y_494
y_495
y_496
y_497
y_498
y_499
y_500
y_501
y_502
y_503
y_504
y_505
y_506
y_507
y_508
y_509
y_510
y_511
y_512
y_513
y_514
End
