data/solutions/exact100kb/instance098.txt
VALUE 1500422
1 6
5 10
6 118
9 14
10 113
13 18
14 108
17 128
18 103
21 98
17 22
25 93
21 26
29 88
25 30
33 83
29 34
37 78
33 38
41 73
37 42
45 68
41 46
49 63
45 50
49 54
57 67
50 63
45 67
46 68
42 73
38 78
34 83
30 88
26 93
22 98
17 103
13 108
9 113
5 118
1 124
6 125
9 126
13 127
22 129
26 130
30 131
34 132
38 133
42 134
46 135
50 136
54 137
57 138

